33D32945 STP File, STP Format Version 1.0

SECTION Comment
Name "full_24"
END

SECTION Graph
Nodes 24
Edges 276
E 19 1 5
E 18 1 18
E 16 4 19
E 16 3 15
E 16 2 4
E 15 14 12
E 19 14 2
E 18 14 20
E 17 14 7
E 16 14 2
E 17 1 3
E 16 1 5
E 24 19 20
E 15 1 10
E 14 1 14
E 13 1 9
E 21 19 1
E 12 1 3
E 20 19 12
E 11 1 4
E 23 19 4
E 10 1 1
E 22 19 18
E 24 20 14
E 23 20 1
E 22 20 9
E 21 20 5
E 20 1 12
E 6 5 4
E 7 5 18
E 24 14 9
E 8 5 1
E 16 9 20
E 23 14 10
E 9 5 19
E 16 8 18
E 16 7 7
E 16 6 10
E 16 5 9
E 24 1 17
E 22 14 19
E 23 1 9
E 21 14 3
E 22 1 17
E 20 14 6
E 21 1 14
E 15 5 10
E 15 4 10
E 15 3 15
E 19 13 7
E 15 2 6
E 24 13 3
E 22 13 20
E 23 13 12
E 20 13 6
E 21 13 13
E 5 4 17
E 6 4 3
E 7 4 17
E 8 4 17
E 9 4 16
E 15 9 6
E 15 8 18
E 15 7 14
E 15 6 8
E 14 6 3
E 14 5 17
E 14 4 14
E 14 3 4
E 14 2 10
E 21 2 18
E 20 2 8
E 19 18 11
E 24 2 11
E 23 2 1
E 22 2 5
E 4 3 17
E 5 3 2
E 6 3 7
E 7 3 8
E 8 3 14
E 14 13 11
E 9 3 18
E 17 13 15
E 14 9 18
E 18 13 9
E 14 8 4
E 15 13 18
E 14 7 6
E 16 13 11
E 23 18 20
E 24 18 13
E 20 18 17
E 21 18 17
E 22 18 7
E 24 23 19
E 13 7 1
E 13 6 2
E 13 5 16
E 13 4 12
E 13 3 8
E 13 2 16
E 13 12 16
E 16 12 6
E 17 12 7
E 14 12 1
E 15 12 7
E 22 17 18
E 23 17 8
E 24 17 3
E 20 17 1
E 21 17 13
E 24 7 18
E 24 6 1
E 24 5 20
E 18 12 9
E 3 2 5
E 24 4 16
E 19 12 16
E 4 2 1
E 24 3 8
E 5 2 8
E 6 2 19
E 7 2 17
E 8 2 8
E 23 12 11
E 9 2 15
E 24 12 18
E 21 12 17
E 22 12 15
E 13 9 6
E 13 8 12
E 20 12 10
E 12 8 19
E 18 11 17
E 12 7 16
E 17 11 9
E 12 6 18
E 12 5 5
E 19 11 10
E 12 4 10
E 12 3 12
E 12 2 20
E 21 11 18
E 20 11 4
E 23 11 11
E 22 11 10
E 24 11 10
E 24 9 15
E 24 8 18
E 23 8 7
E 2 1 18
E 23 7 14
E 3 1 16
E 23 6 3
E 4 1 3
E 23 5 1
E 5 1 2
E 23 4 19
E 6 1 2
E 23 3 2
E 7 1 15
E 8 1 7
E 9 1 8
E 19 17 11
E 12 9 5
E 18 17 20
E 11 9 8
E 11 8 15
E 11 7 6
E 11 6 9
E 11 5 1
E 11 4 19
E 11 3 20
E 11 2 15
E 17 16 20
E 19 16 15
E 23 9 14
E 18 16 18
E 23 22 12
E 24 22 18
E 22 9 1
E 22 8 2
E 22 7 16
E 22 6 13
E 22 5 2
E 22 4 3
E 22 3 17
E 19 9 18
E 19 8 12
E 19 7 5
E 12 11 3
E 19 6 4
E 19 5 14
E 14 11 15
E 19 4 5
E 13 11 5
E 19 3 20
E 16 11 20
E 19 2 20
E 9 8 12
E 15 11 11
E 20 16 8
E 24 16 17
E 23 16 8
E 22 16 15
E 21 16 2
E 10 2 2
E 18 2 13
E 10 9 18
E 10 8 17
E 24 21 1
E 10 7 12
E 23 21 19
E 10 6 3
E 22 21 12
E 10 5 20
E 10 4 2
E 10 3 18
E 11 10 20
E 24 15 7
E 13 10 2
E 12 10 19
E 15 10 8
E 14 10 18
E 23 15 20
E 22 15 2
E 21 15 4
E 20 15 9
E 17 10 3
E 21 9 3
E 16 10 15
E 21 8 7
E 19 10 16
E 21 7 16
E 18 10 5
E 21 6 15
E 21 5 1
E 21 4 15
E 21 3 14
E 20 10 1
E 18 9 7
E 18 8 6
E 22 10 19
E 18 7 6
E 21 10 9
E 18 6 20
E 24 10 20
E 18 5 16
E 8 7 6
E 23 10 10
E 18 4 20
E 9 7 4
E 18 3 17
E 17 3 7
E 17 2 3
E 20 3 16
E 20 9 19
E 20 8 13
E 20 7 15
E 20 6 12
E 20 5 19
E 20 4 11
E 16 15 9
E 17 9 15
E 7 6 5
E 17 8 12
E 8 6 7
E 17 7 15
E 9 6 6
E 17 6 7
E 19 15 14
E 17 5 19
E 18 15 11
E 17 4 4
E 17 15 13
END

SECTION Terminals
Terminals 10
T 1
T 2
T 3
T 7
T 8
T 9
T 12
T 13
T 17
T 19
END

EOF
